
  12    4
  10   10   10   10

   0   0   0   0   0   5 2 3 4 7 11 
   3  10  10  10  10   4 10 9 6 5 
   3  10  10  10  10   2 6 5 
  10  10  10  10  10   1 5 
   3  10  10  10  10   1 8 
   8  10  10  10  10   1 8 
   3  10  10  10  10   1 9 
   7  10  10  10  10   1 12
   2  10  10  10  10   1 12
  10  10  10  10  10   1 12
   3  10  10  10  10   1 12
   0   0   0   0   0   0 
